8
28 12 80 68 77 3 79 33 78 34 29 24 76
27 69 1 50 81 9 51 20 30 70 66 71 35 65
52 88 31 10 62 11 19 7 63 90 32 64 49
6 60 83 18 82 48 47 36 46 8 45 17 84 5 61
96 99 59 93 85 98 91 16 44 86
13 94 95 97 92 37 100 42 87 57 15 43 14 38
53 58 40 21 73 72 74 22 75 56 23 41 2 89
26 54 55 25 39 4 67
